HUN,8,6,247
5,64,2,70,1,88,0,82,3,19,4,86
4,45,1,23,0,41,5,95,3,49,2,11
5,70,2,73,4,46,3,48,1,53,0,24
3,81,0,61,1,13,2,47,4,18,5,89
4,89,0,84,3,61,5,1,1,2,2,84
3,81,1,54,4,9,2,36,0,12,5,30
2,12,3,9,1,79,5,77,4,77,0,71
5,50,1,100,4,85,2,19,3,86,0,62
